
Gurobi 9.5.1 (linux64) logging started Tue 16 Aug 2022 09:36:35 PM MST

Set parameter LogFile to value "/home/local/ASUAD/kmajd1/NNRepLayer_v2/demos/walking_example/dynamic_constraint/repair_net/logs/opt_log_multi_36.log"
Gurobi Optimizer version 9.5.1 build v9.5.1rc2 (linux64)
Thread count: 48 physical cores, 96 logical processors, using up to 48 threads
Optimize a model with 15477 rows, 9832 columns and 133141 nonzeros
Model fingerprint: 0x483b6dfa
Model has 135 quadratic objective terms
Variable types: 5512 continuous, 4320 integer (4320 binary)
Coefficient statistics:
  Matrix range     [6e-04, 5e+01]
  Objective range  [2e-02, 3e+00]
  QObjective range [1e-01, 1e-01]
  Bounds range     [2e-04, 2e+02]
  RHS range        [6e-04, 5e+01]

Concurrent MIP optimizer: 3 concurrent instances (16 threads per instance)

Presolve removed 398 rows and 64 columns
Presolve time: 0.24s
Presolved: 15079 rows, 9768 columns, 132615 nonzeros
Presolved model has 135 quadratic objective terms
Variable types: 5448 continuous, 4320 integer (4320 binary)
Root relaxation presolve removed 4320 rows and 4320 columns
Root relaxation presolved: 10759 rows, 5448 columns, 119655 nonzeros
Root relaxation presolved model has 135 quadratic objective terms


Root relaxation: objective 1.279132e+01, 6567 iterations, 0.43 seconds (0.77 work units)

    Nodes    |    Current Node    |     Objective Bounds      |     Work
 Expl Unexpl |  Obj  Depth IntInf | Incumbent    BestBd   Gap | It/Node Time

     0     0      -    -    -              -   12.79132      -     -    0s
     0     0      -    -    -              -   12.79132      -     -    3s
     0     2      -    -    -              -   12.79132      -     -    9s
    63    80      -    -    -              -   12.79132      -     -   10s
  1246  1316      -    -    -              -   12.79132      -     -   15s
  3301  3465      -    -    -              -   12.79132      -     -   20s
  5442  5683      -    -    -              -   12.79132      -     -   25s
  7479  7775      -    -    -              -   12.79132      -     -   30s
  9414  9675      -    -    -              -   12.79132      -     -   35s
 10361 10361      -    -    -              -   12.79132      -     -   42s
 10363  9352      -    -    -       28.99095   12.79132  55.9%     -   61s
 10442  8953      -    -    -       27.13808   12.79132  52.9%     -   98s
 10575  8199      -    -    -       26.26030   12.79132  51.3%     -  100s
 11072  8106      -    -    -       23.12192   12.79132  44.7%     -  127s
 11956  7072      -    -    -       23.12192   12.79132  44.7%     -  131s
 12213  7165      -    -    -       22.95598   12.79132  44.3%     -  164s
 12735  6826      -    -    -       22.95598   12.79132  44.3%     -  169s
 13140  7130      -    -    -       22.95598   12.79132  44.3%     -  171s
 14048  7723      -    -    -       22.95598   12.79132  44.3%     -  178s
 14442  7977      -    -    -       22.95598   12.79132  44.3%     -  180s
 15932  9045      -    -    -       22.95598   12.79132  44.3%     -  185s
 17018  9719      -    -    -       22.95598   12.79132  44.3%     -  190s
 17355  9991      -    -    -       22.95598   12.79132  44.3%     -  195s
 19046 11138      -    -    -       22.95598   12.79132  44.3%     -  200s
 19412 11388      -    -    -       22.95598   12.79132  44.3%     -  212s
 20107 11626      -    -    -       22.95598   12.79132  44.3%     -  223s
 20265 11890      -    -    -       22.95598   12.79132  44.3%     -  225s
 20582 13037      -    -    -       22.95598   12.79132  44.3%     -  236s
 21845 12881      -    -    -       22.95598   12.79132  44.3%     -  247s
 22110 13144      -    -    -       22.95598   12.79132  44.3%     -  254s
 22461 13670      -    -    -       22.95598   12.79132  44.3%     -  262s
 23104 13472      -    -    -       22.95598   12.79132  44.3%     -  304s
 23120 13947      -    -    -       22.95598   12.79132  44.3%     -  312s
 23601 13937      -    -    -       22.95598   12.79132  44.3%     -  323s
 23759 14338      -    -    -       22.95598   12.79132  44.3%     -  329s
 24213 14759      -    -    -       22.95598   12.79132  44.3%     -  337s
 24785 14930      -    -    -       22.95598   12.79132  44.3%     -  344s
 25157 14701      -    -    -       22.95598   12.79132  44.3%     -  370s
 25173 14717      -    -    -       22.29336   12.79132  42.6%     -  600s

Instance 2 was solved

Explored 25241 nodes (9503219 simplex iterations) in 600.26 seconds (1223.82 work units)
Thread count was 16 (of 96 available processors)

Solution count 10: 21.565 21.697 21.7913 ... 22.9251 

Time limit reached
Best objective 2.156503051339e+01, best bound 1.279131961691e+01, gap 40.6849%
